
  32    4
  10   10   10   10

   0   0   0   0   0   3 2 12 31 
   4   1   1   0   1   1 3 
   8   2   4   0   5   2 16 4 
   7   0   2   1   5   1 5 
   4   2   0   3   7   1 6 
   9   2   0   4   2   1 7 
   1   6   0   3   2   2 30 8 
   4   4   3   0   3   1 9 
   7   5   6   4   0   2 29 10 
  10   7   0   5   4   1 11 
  10   6   6   5   0   1 13 
   6   4   5   0   7   1 13 
   5   2   5   0   5   1 14 
   8   6   5   3   0   1 15 
   3   3   2   0   4   1 17 
   9   6   0   2   2   1 17 
   2   0   4   3   4   1 18 
   7   3   0   5   1   1 19 
   3   6   3   0   6   1 20 
   4   2   0   6   4   1 21 
   5   2   0   4   7   2 28 22 
   3   2   7   2   0   1 23 
   2   0   3   7   2   1 24 
   8   5   1   3   0   1 25 
   7   9   4   7   0   1 26 
   8   5   0   4   4   1 27 
   6   3   4   0   3   1 32
   2   3   0   6   4   1 32
   5   2   5   0   8   1 32
   7   5   0   3   2   1 32
   4   5   6   0   4   1 32
   0   0   0   0   0   0 
